1938
31
7046
8881
3208
406
1919
354
932
952
695
2164
2849
3011
17
132
2149
1641
1766
1733
0
48
975
82
3139
210
135
27
656
1489
1046
499
2068
534
445
16
214
313
4385
738
4523
816
4516
738
3516
819
193
170
797
3234
6546
1690
583
766
7066
4962
56
350
1643
898
293
426
346
55
4765
0
45
1629
3048
162
10946
2880
1288
1047
176
4823
568
54
759
76
2088
233
154
4759
1896
52
1998
1791
2026
12210
3202
3213
56
1932
3243
4441
4917
2262
2878
991
